param n := 2;

param m := 2;

param K := 50;

param a :=
1 	 0.071974
2 	 0.967276
;
 param A :=
[1, *, *]:  1	2	:=
1	0.136201	-0.495349	
2	-0.593414	0.487652	

[2, *, *]:  1	2	:=
1	-0.609141	0.940040	
2	0.162718	0.693658	
;